NAME : XML100_1272_17
DIMENSION : 101
NB_CLUSTERS : 4
CLUSTERING_ALG : KMedoids
CLUSTERING_PARAMS : k(3)
CLUSTERS
1 0
2 4 5 7 8 13 17 18 29 32 35 36 46 47 51 52 53 55 56 59 62 63 65 67 68 69 70 71 72 74 79 80 87 88 89 92 93 94 96 97 100
3 2 10 12 14 20 24 30 31 34 39 40 41 43 45 50 64 66 76 77 81 83 84 90 91 95 98
4 1 3 6 9 11 15 16 19 21 22 23 25 26 27 28 33 37 38 42 44 48 49 54 57 58 60 61 73 75 78 82 85 86 99
EOF